p tw 40 84
0 1
0 29
0 9
0 32
0 36
0 18
0 39
0 27
1 20
1 18
1 39
2 3
2 6
2 26
2 33
2 34
2 19
3 7
3 8
3 28
3 19
3 23
4 5
4 30
4 13
4 34
5 10
5 28
5 19
6 10
6 19
6 26
6 32
7 26
7 10
8 9
8 20
8 18
9 11
9 25
9 39
10 14
10 22
10 34
11 17
11 20
11 29
11 16
12 13
12 18
13 18
13 30
14 31
14 38
15 16
15 17
15 26
15 25
16 19
17 18
18 19
18 27
19 38
19 27
20 21
20 24
20 31
21 25
21 29
22 23
23 24
23 25
25 35
25 30
26 28
26 37
27 28
27 29
29 31
30 32
31 38
35 38
35 39
35 37
